\ Model _copy
\ LP format - for model browsing. Use MPS format to capture full model detail.
Minimize
 
Subject To
 UNSAT: b_g >= 0
 qc0: b_variance + [ - sigma2 ^2 ] = 0
 qc1: - c + b_g - 1.257012166783826 b_sigma + [
   2.514346141974856 p * b_sigma ] = 0
Bounds
 p >= 0.4375
 -infinity <= c <= -1
 0.35 <= sigma2 <= 0.4
 b_g free
 b_variance free
 b_sigma free
General Constraints
 GC0: b_sigma = POW ( b_variance ^ 0.5 )
End
